/*********************************************
    * Lab01 - simple
    * Author: Coso
    * Creation Date: Mar, 2019
    *********************************************/
instance_name = "medium_instance_17_simple";

d = 5;
r = 15;

SCj = [211 243 200 232 225];
Dk = [20 57 60 22 19 61 63 59 54 55 37 36 50 84 55];

Cjk = [[78 56 75 53 80 71 36 87 86 39 48 71 74 62 65]
 [52 68 31 60 48 31 51 31 38 71 66 47 55 59 79]
 [67 44 50 88 79 49 48 55 88 35 37 61 65 75 48]
 [61 44 50 74 56 46 84 84 76 89 36 68 67 44 52]
 [76 50 61 88 41 63 85 78 86 59 85 48 33 70 87]];
